\ENCODING=ISO-8859-1
\Problem name: IloCplex

Minimize
 obj: 5 y(0,0) + 10 y(0,1) + 5 y(5,1) + 10 y(6,0) + 15 y(6,1) + 20 y(7,0)
      + 25 y(7,1) + 5 y(10,0) + 10 y(10,1) + 5 y(16,1) + 10 y(17,0)
      + 15 y(17,1) + 20 y(18,0) + 25 y(18,1) + 5 y(19,0) + 10 y(19,1)
      + 10 y(20,0) + 15 y(20,1) + 20 y(21,0) + 25 y(21,1) + 10 y(22,0)
      + 15 y(22,1) + 20 y(23,0) + 25 y(23,1) + 5 z(1,0,0) + 5 z(1,0,1)
      + 10 z(1,1,0) + 10 z(1,1,1) + 5 z(2,1,0) + 5 z(2,1,1) + 5 z(3,1,0)
      + 5 z(3,1,1) + 10 z(4,0,0) + 10 z(4,0,1) + 15 z(4,1,0) + 15 z(4,1,1)
      + 5 z(12,0,0) + 5 z(12,0,1) + 10 z(12,1,0) + 10 z(12,1,1) + 5 z(13,1,0)
      + 5 z(13,1,1) + 5 z(14,1,0) + 5 z(14,1,1) + 10 z(15,0,0) + 10 z(15,0,1)
      + 15 z(15,1,0) + 15 z(15,1,1) + 5 x49 + 15 x50 + 10 x51 + 5 x52 + 15 x53
      + 10 x54 + 5 x55 + 15 x56 + 10 x57 + 5 x58 + 15 x59 + 10 x60
Subject To
 Um_Padrao#0:   x(0,0,0) + x(3,0,0) + x(6,0,0) + x(9,0,0) + x(13,0,0)
                + x(18,0,0) + x(21,0,0) + x(24,0,0) <= 1
 Um_Padrao#1:   x(0,0,1) + x(3,0,1) + x(6,0,1) + x(9,0,1) + x(13,0,1)
                + x(18,0,1) + x(21,0,1) + x(24,0,1) <= 1
 Um_Padrao#2:   x(0,1,0) + x(1,1,0) + x(2,1,0) + x(4,1,0) + x(7,1,0)
                + x(10,1,0) + x(11,1,0) + x(12,1,0) + x(14,1,0) + x(16,1,0)
                + x(17,1,0) + x(19,1,0) + x(22,1,0) <= 1
 Um_Padrao#3:   x(0,1,1) + x(1,1,1) + x(2,1,1) + x(4,1,1) + x(7,1,1)
                + x(10,1,1) + x(11,1,1) + x(12,1,1) + x(14,1,1) + x(16,1,1)
                + x(17,1,1) + x(19,1,1) + x(22,1,1) <= 1
 Demanda#4:     x(6,0,0) + 2 x(9,0,0) + x(6,0,1) + 2 x(9,0,1) + x(1,1,0)
                + 3 x(4,1,0) + 4 x(7,1,0) + x(1,1,1) + 3 x(4,1,1) + 4 x(7,1,1)
                >= 1
 Demanda#5:     2 x(3,0,0) + x(6,0,0) + 2 x(3,0,1) + x(6,0,1) + 2 x(1,1,0)
                + 3 x(2,1,0) + x(4,1,0) + 2 x(1,1,1) + 3 x(2,1,1) + x(4,1,1)
                >= 1
 Demanda#6:     x(13,0,0) + x(21,0,0) + 2 x(24,0,0) + x(11,1,0) + 2 x(12,1,0)
                + x(16,1,0) + 3 x(19,1,0) + 4 x(22,1,0) >= 1
 Demanda#7:     2 x(18,0,0) + x(21,0,0) + x(11,1,0) + 2 x(14,1,0) + 2 x(16,1,0)
                + 3 x(17,1,0) + x(19,1,0) >= 1
 Demanda#8:     x(13,0,0) + 2 x(10,1,0) + x(11,1,0) + x(12,1,0) + x(14,1,0)
                >= 1
 problema#9:    x(13,0,0) - x(0,0,1) <= 0
 problema#10:   x(18,0,0) - x(0,0,1) <= 0
 problema#11:   x(21,0,0) - x(0,0,1) <= 0
 problema#12:   x(24,0,0) - x(0,0,1) <= 0
 problema#13:   x(10,1,0) - x(0,1,1) <= 0
 problema#14:   x(11,1,0) - x(0,1,1) <= 0
 problema#15:   x(12,1,0) - x(0,1,1) <= 0
 problema#16:   x(14,1,0) - x(0,1,1) <= 0
 problema#17:   x(16,1,0) - x(0,1,1) <= 0
 problema#18:   x(17,1,0) - x(0,1,1) <= 0
 problema#19:   x(19,1,0) - x(0,1,1) <= 0
 problema#20:   x(22,1,0) - x(0,1,1) <= 0
 oi#21:         x(0,0,0) <= 0
 oi#22:         x(0,1,0) <= 0
 oi#23:         - x(13,0,0) - x(18,0,0) - x(21,0,0) - x(24,0,0) + x(0,0,1) <= 0
 oi#24:         - x(10,1,0) - x(11,1,0) - x(12,1,0) - x(14,1,0) - x(16,1,0)
                - x(17,1,0) - x(19,1,0) - x(22,1,0) + x(0,1,1) <= 0
 _Estoque_1#25: x49 + x50 + x52 + x53 + x55 + x56 + x58 + x59 + x103 + x104
                + x105 + x106 + x107 + x108 <= 1
 _Estoque_1#26: x51 + x54 + x57 + x60 + x109 + x110 + x111 + x112 + x113 + x114
                + x115 + x116 + x117 + x118 <= 1
 _Estoque_2#27: y(0,0) + y(6,0) + y(7,0) + y(10,0) + y(17,0) + y(18,0)
                + y(19,0) + y(20,0) + y(21,0) + y(22,0) + y(23,0) + z(1,0,0)
                + z(1,0,1) + z(4,0,0) + z(4,0,1) + z(12,0,0) + z(12,0,1)
                + z(15,0,0) + z(15,0,1) + y(5,0) + y(9,0) + y(16,0) + z(2,0,0)
                + z(3,0,0) + z(8,0,0) + z(11,0,0) + z(13,0,0) + z(14,0,0)
                + z(2,0,1) + z(3,0,1) + z(8,0,1) + z(11,0,1) + z(13,0,1)
                + z(14,0,1) <= 1
 _Estoque_2#28: y(0,1) + y(5,1) + y(6,1) + y(7,1) + y(10,1) + y(16,1) + y(17,1)
                + y(18,1) + y(19,1) + y(20,1) + y(21,1) + y(22,1) + y(23,1)
                + z(1,1,0) + z(1,1,1) + z(2,1,0) + z(2,1,1) + z(3,1,0)
                + z(3,1,1) + z(4,1,0) + z(4,1,1) + z(12,1,0) + z(12,1,1)
                + z(13,1,0) + z(13,1,1) + z(14,1,0) + z(14,1,1) + z(15,1,0)
                + z(15,1,1) + y(9,1) + z(8,1,0) + z(11,1,0) + z(8,1,1)
                + z(11,1,1) <= 1
 Integracao#29: y(6,0) + 2 y(16,1) + y(17,1) + z(14,1,1) + x55 - x(3,0,0)
                - x(6,0,0) - x(9,0,0) - x(13,0,0) - x(18,0,0) - x(21,0,0)
                - x(24,0,0) - x(3,0,1) - x(6,0,1) - x(9,0,1) - x(13,0,1)
                - x(18,0,1) - x(21,0,1) - x(24,0,1) + x118 + 2 y(5,0)
                + z(3,0,1) + y(9,1) + z(11,1,0)  = 0
 Integracao#30: y(0,0) + y(10,1) - x(1,1,0) - x(2,1,0) - x(4,1,0) - x(7,1,0)
                - x(10,1,0) - x(11,1,0) - x(12,1,0) - x(14,1,0) - x(16,1,0)
                - x(17,1,0) - x(19,1,0) - x(22,1,0) - x(1,1,1) - x(2,1,1)
                - x(4,1,1) - x(7,1,1) - x(10,1,1) - x(11,1,1) - x(12,1,1)
                - x(14,1,1) - x(16,1,1) - x(17,1,1) - x(19,1,1) - x(22,1,1)
                + x108 + y(9,1) + z(8,1,1) - x(3,1,0) - x(5,1,0) - x(6,1,0)
                - x(8,1,0) - x(9,1,0) - x(13,1,0) - x(15,1,0) - x(18,1,0)
                - x(20,1,0) - x(21,1,0) - x(23,1,0) - x(24,1,0) - x(3,1,1)
                - x(5,1,1) - x(6,1,1) - x(8,1,1) - x(9,1,1) - x(13,1,1)
                - x(15,1,1) - x(18,1,1) - x(20,1,1) - x(21,1,1) - x(23,1,1)
                - x(24,1,1)  = 0
Bounds
 0 <= y(0,0) <= 2
 0 <= y(0,1) <= 2
 0 <= y(5,1) <= 2
 0 <= y(6,0) <= 2
 0 <= y(6,1) <= 2
 0 <= y(7,0) <= 2
 0 <= y(7,1) <= 2
 0 <= y(10,0) <= 2
 0 <= y(10,1) <= 2
 0 <= y(16,1) <= 2
 0 <= y(17,0) <= 2
 0 <= y(17,1) <= 2
 0 <= y(18,0) <= 2
 0 <= y(18,1) <= 2
 0 <= y(19,0) <= 2
 0 <= y(19,1) <= 2
 0 <= y(20,0) <= 2
 0 <= y(20,1) <= 2
 0 <= y(21,0) <= 2
 0 <= y(21,1) <= 2
 0 <= y(22,0) <= 2
 0 <= y(22,1) <= 2
 0 <= y(23,0) <= 2
 0 <= y(23,1) <= 2
 0 <= z(1,0,0) <= 2
 0 <= z(1,0,1) <= 2
 0 <= z(1,1,0) <= 2
 0 <= z(1,1,1) <= 2
 0 <= z(2,1,0) <= 2
 0 <= z(2,1,1) <= 2
 0 <= z(3,1,0) <= 2
 0 <= z(3,1,1) <= 2
 0 <= z(4,0,0) <= 2
 0 <= z(4,0,1) <= 2
 0 <= z(4,1,0) <= 2
 0 <= z(4,1,1) <= 2
 0 <= z(12,0,0) <= 2
 0 <= z(12,0,1) <= 2
 0 <= z(12,1,0) <= 2
 0 <= z(12,1,1) <= 2
 0 <= z(13,1,0) <= 2
 0 <= z(13,1,1) <= 2
 0 <= z(14,1,0) <= 2
 0 <= z(14,1,1) <= 2
 0 <= z(15,0,0) <= 2
 0 <= z(15,0,1) <= 2
 0 <= z(15,1,0) <= 2
 0 <= z(15,1,1) <= 2
 0 <= x49 <= 2
 0 <= x50 <= 2
 0 <= x51 <= 2
 0 <= x52 <= 2
 0 <= x53 <= 2
 0 <= x54 <= 2
 0 <= x55 <= 2
 0 <= x56 <= 2
 0 <= x57 <= 2
 0 <= x58 <= 2
 0 <= x59 <= 2
 0 <= x60 <= 2
 0 <= x(0,0,0) <= 1
 0 <= x(3,0,0) <= 1
 0 <= x(6,0,0) <= 1
 0 <= x(9,0,0) <= 1
 0 <= x(13,0,0) <= 1
 0 <= x(18,0,0) <= 1
 0 <= x(21,0,0) <= 1
 0 <= x(24,0,0) <= 1
 0 <= x(0,0,1) <= 1
 0 <= x(3,0,1) <= 1
 0 <= x(6,0,1) <= 1
 0 <= x(9,0,1) <= 1
 0 <= x(13,0,1) <= 1
 0 <= x(18,0,1) <= 1
 0 <= x(21,0,1) <= 1
 0 <= x(24,0,1) <= 1
 0 <= x(0,1,0) <= 1
 0 <= x(1,1,0) <= 1
 0 <= x(2,1,0) <= 1
 0 <= x(4,1,0) <= 1
 0 <= x(7,1,0) <= 1
 0 <= x(10,1,0) <= 1
 0 <= x(11,1,0) <= 1
 0 <= x(12,1,0) <= 1
 0 <= x(14,1,0) <= 1
 0 <= x(16,1,0) <= 1
 0 <= x(17,1,0) <= 1
 0 <= x(19,1,0) <= 1
 0 <= x(22,1,0) <= 1
 0 <= x(0,1,1) <= 1
 0 <= x(1,1,1) <= 1
 0 <= x(2,1,1) <= 1
 0 <= x(4,1,1) <= 1
 0 <= x(7,1,1) <= 1
 0 <= x(10,1,1) <= 1
 0 <= x(11,1,1) <= 1
 0 <= x(12,1,1) <= 1
 0 <= x(14,1,1) <= 1
 0 <= x(16,1,1) <= 1
 0 <= x(17,1,1) <= 1
 0 <= x(19,1,1) <= 1
 0 <= x(22,1,1) <= 1
 0 <= x103 <= 2
 0 <= x104 <= 2
 0 <= x105 <= 2
 0 <= x106 <= 2
 0 <= x107 <= 2
 0 <= x108 <= 2
 0 <= x109 <= 2
 0 <= x110 <= 2
 0 <= x111 <= 2
 0 <= x112 <= 2
 0 <= x113 <= 2
 0 <= x114 <= 2
 0 <= x115 <= 2
 0 <= x116 <= 2
 0 <= x117 <= 2
 0 <= x118 <= 2
 0 <= y(5,0) <= 2
 0 <= y(9,0) <= 2
 0 <= y(16,0) <= 2
 0 <= z(2,0,0) <= 2
 0 <= z(3,0,0) <= 2
 0 <= z(8,0,0) <= 2
 0 <= z(11,0,0) <= 2
 0 <= z(13,0,0) <= 2
 0 <= z(14,0,0) <= 2
 0 <= z(2,0,1) <= 2
 0 <= z(3,0,1) <= 2
 0 <= z(8,0,1) <= 2
 0 <= z(11,0,1) <= 2
 0 <= z(13,0,1) <= 2
 0 <= z(14,0,1) <= 2
 0 <= y(9,1) <= 2
 0 <= z(8,1,0) <= 2
 0 <= z(11,1,0) <= 2
 0 <= z(8,1,1) <= 2
 0 <= z(11,1,1) <= 2
 0 <= x(3,1,0) <= 1
 0 <= x(5,1,0) <= 1
 0 <= x(6,1,0) <= 1
 0 <= x(8,1,0) <= 1
 0 <= x(9,1,0) <= 1
 0 <= x(13,1,0) <= 1
 0 <= x(15,1,0) <= 1
 0 <= x(18,1,0) <= 1
 0 <= x(20,1,0) <= 1
 0 <= x(21,1,0) <= 1
 0 <= x(23,1,0) <= 1
 0 <= x(24,1,0) <= 1
 0 <= x(3,1,1) <= 1
 0 <= x(5,1,1) <= 1
 0 <= x(6,1,1) <= 1
 0 <= x(8,1,1) <= 1
 0 <= x(9,1,1) <= 1
 0 <= x(13,1,1) <= 1
 0 <= x(15,1,1) <= 1
 0 <= x(18,1,1) <= 1
 0 <= x(20,1,1) <= 1
 0 <= x(21,1,1) <= 1
 0 <= x(23,1,1) <= 1
 0 <= x(24,1,1) <= 1
Binaries
 x(0,0,0)  x(3,0,0)  x(6,0,0)  x(9,0,0)  x(13,0,0)  x(18,0,0)  x(21,0,0) 
 x(24,0,0)  x(0,0,1)  x(3,0,1)  x(6,0,1)  x(9,0,1)  x(13,0,1)  x(18,0,1) 
 x(21,0,1)  x(24,0,1)  x(0,1,0)  x(1,1,0)  x(2,1,0)  x(4,1,0)  x(7,1,0) 
 x(10,1,0)  x(11,1,0)  x(12,1,0)  x(14,1,0)  x(16,1,0)  x(17,1,0)  x(19,1,0) 
 x(22,1,0)  x(0,1,1)  x(1,1,1)  x(2,1,1)  x(4,1,1)  x(7,1,1)  x(10,1,1) 
 x(11,1,1)  x(12,1,1)  x(14,1,1)  x(16,1,1)  x(17,1,1)  x(19,1,1)  x(22,1,1) 
 x(3,1,0)  x(5,1,0)  x(6,1,0)  x(8,1,0)  x(9,1,0)  x(13,1,0)  x(15,1,0) 
 x(18,1,0)  x(20,1,0)  x(21,1,0)  x(23,1,0)  x(24,1,0)  x(3,1,1)  x(5,1,1) 
 x(6,1,1)  x(8,1,1)  x(9,1,1)  x(13,1,1)  x(15,1,1)  x(18,1,1)  x(20,1,1) 
 x(21,1,1)  x(23,1,1)  x(24,1,1) 
Generals
 y(0,0)  y(0,1)  y(5,1)  y(6,0)  y(6,1)  y(7,0)  y(7,1)  y(10,0)  y(10,1) 
 y(16,1)  y(17,0)  y(17,1)  y(18,0)  y(18,1)  y(19,0)  y(19,1)  y(20,0) 
 y(20,1)  y(21,0)  y(21,1)  y(22,0)  y(22,1)  y(23,0)  y(23,1)  z(1,0,0) 
 z(1,0,1)  z(1,1,0)  z(1,1,1)  z(2,1,0)  z(2,1,1)  z(3,1,0)  z(3,1,1) 
 z(4,0,0)  z(4,0,1)  z(4,1,0)  z(4,1,1)  z(12,0,0)  z(12,0,1)  z(12,1,0) 
 z(12,1,1)  z(13,1,0)  z(13,1,1)  z(14,1,0)  z(14,1,1)  z(15,0,0)  z(15,0,1) 
 z(15,1,0)  z(15,1,1)  x49  x50  x51  x52  x53  x54  x55  x56  x57  x58  x59 
 x60  x103  x104  x105  x106  x107  x108  x109  x110  x111  x112  x113  x114 
 x115  x116  x117  x118  y(5,0)  y(9,0)  y(16,0)  z(2,0,0)  z(3,0,0)  z(8,0,0) 
 z(11,0,0)  z(13,0,0)  z(14,0,0)  z(2,0,1)  z(3,0,1)  z(8,0,1)  z(11,0,1) 
 z(13,0,1)  z(14,0,1)  y(9,1)  z(8,1,0)  z(11,1,0)  z(8,1,1)  z(11,1,1) 
End
